DIMACS_lns/graph-1000-345.col
p edge 1000 1839
e 1 612
e 1 316
e 1 723
e 1 639
e 1 453
e 1 492
e 1 594
e 1 698
e 2 933
e 2 864
e 2 40
e 4 275
e 4 675
e 4 500
e 4 628
e 7 554
e 7 845
e 7 66
e 7 799
e 9 320
e 9 659
e 9 417
e 9 452
e 9 204
e 10 575
e 10 487
e 10 415
e 10 258
e 10 804
e 11 289
e 11 495
e 11 53
e 11 93
e 13 234
e 13 239
e 13 746
e 13 856
e 14 534
e 14 170
e 14 745
e 14 643
e 14 989
e 16 813
e 16 725
e 16 452
e 16 940
e 18 162
e 18 835
e 18 768
e 19 44
e 19 993
e 19 503
e 19 539
e 19 883
e 19 897
e 20 679
e 20 997
e 20 782
e 20 171
e 21 649
e 21 799
e 21 848
e 21 587
e 21 546
e 21 302
e 21 725
e 22 986
e 22 911
e 22 330
e 22 907
e 24 611
e 24 506
e 24 483
e 24 365
e 25 926
e 25 897
e 25 318
e 26 919
e 26 461
e 26 654
e 27 308
e 27 396
e 27 453
e 28 724
e 28 451
e 28 321
e 28 692
e 30 343
e 30 110
e 30 963
e 30 879
e 30 471
e 30 762
e 30 320
e 31 229
e 31 392
e 31 231
e 33 547
e 33 310
e 33 511
e 33 847
e 35 365
e 35 356
e 35 141
e 35 605
e 36 831
e 36 111
e 36 76
e 37 923
e 37 517
e 37 380
e 39 406
e 39 488
e 39 413
e 39 154
e 39 647
e 40 141
e 40 237
e 40 713
e 40 654
e 40 887
e 40 821
e 40 293
e 41 80
e 41 861
e 41 807
e 41 116
e 41 826
e 41 308
e 41 942
e 41 356
e 41 54
e 43 67
e 43 102
e 43 625
e 43 285
e 44 843
e 44 422
e 44 237
e 44 350
e 44 936
e 46 242
e 46 877
e 46 410
e 46 758
e 46 418
e 46 293
e 46 278
e 48 169
e 48 702
e 48 333
e 49 64
e 49 759
e 49 325
e 49 749
e 52 374
e 52 561
e 52 700
e 52 765
e 52 58
e 52 386
e 53 469
e 53 962
e 53 610
e 54 919
e 54 815
e 54 595
e 54 372
e 54 534
e 56 157
e 56 542
e 56 819
e 57 340
e 57 343
e 57 104
e 57 541
e 57 892
e 58 218
e 58 521
e 58 434
e 58 477
e 60 630
e 60 517
e 60 934
e 60 363
e 60 877
e 60 668
e 60 577
e 61 981
e 61 568
e 61 491
e 61 700
e 62 152
e 62 266
e 62 540
e 62 981
e 62 581
e 64 735
e 64 284
e 64 604
e 64 532
e 64 594
e 64 182
e 64 190
e 65 249
e 65 433
e 65 274
e 65 683
e 66 328
e 66 112
e 67 381
e 67 749
e 67 465
e 69 435
e 69 693
e 69 678
e 69 132
e 69 469
e 69 112
e 70 961
e 70 532
e 70 756
e 70 152
e 71 375
e 71 935
e 71 291
e 72 657
e 72 813
e 72 249
e 72 177
e 72 82
e 72 577
e 72 995
e 72 131
e 74 686
e 74 857
e 74 164
e 74 824
e 74 499
e 76 212
e 76 649
e 76 570
e 76 320
e 76 919
e 76 893
e 77 352
e 77 977
e 77 434
e 78 896
e 78 605
e 78 230
e 78 871
e 78 198
e 78 202
e 78 774
e 78 822
e 78 409
e 80 853
e 80 495
e 80 708
e 81 181
e 81 190
e 81 623
e 81 967
e 81 649
e 81 421
e 81 144
e 82 325
e 82 472
e 82 699
e 84 898
e 84 222
e 84 936
e 85 843
e 85 629
e 85 302
e 87 983
e 87 887
e 87 314
e 88 102
e 88 605
e 88 140
e 88 768
e 88 175
e 88 831
e 89 355
e 89 255
e 89 616
e 89 557
e 90 955
e 90 867
e 90 805
e 90 765
e 90 261
e 90 595
e 90 924
e 90 946
e 90 465
e 92 206
e 92 678
e 92 979
e 92 646
e 93 834
e 93 574
e 93 439
e 93 561
e 93 131
e 94 897
e 94 840
e 94 253
e 94 541
e 94 471
e 94 354
e 95 338
e 95 268
e 95 830
e 95 247
e 95 415
e 97 385
e 97 983
e 97 275
e 97 774
e 97 886
e 97 694
e 99 266
e 99 601
e 99 799
e 101 278
e 101 144
e 101 462
e 101 182
e 101 314
e 102 775
e 103 278
e 103 351
e 103 297
e 103 404
e 103 601
e 103 888
e 104 242
e 104 736
e 105 666
e 105 688
e 105 821
e 105 841
e 105 323
e 106 431
e 106 409
e 106 536
e 107 124
e 107 710
e 107 833
e 107 149
e 108 517
e 108 504
e 108 112
e 108 617
e 108 691
e 108 449
e 108 502
e 109 984
e 109 590
e 109 550
e 109 261
e 109 424
e 110 435
e 110 180
e 110 467
e 111 934
e 111 948
e 111 201
e 112 944
e 112 335
e 112 961
e 112 145
e 112 827
e 113 818
e 113 253
e 113 180
e 116 502
e 116 984
e 116 616
e 116 742
e 116 127
e 118 397
e 118 731
e 118 515
e 118 308
e 118 460
e 118 935
e 118 662
e 121 871
e 121 997
e 121 671
e 122 818
e 122 458
e 122 634
e 124 993
e 124 444
e 126 395
e 126 642
e 126 294
e 127 948
e 127 499
e 128 684
e 128 736
e 128 983
e 128 724
e 129 621
e 129 353
e 129 500
e 129 453
e 130 961
e 130 553
e 130 842
e 131 670
e 131 613
e 131 839
e 131 488
e 131 390
e 131 520
e 131 295
e 131 793
e 132 309
e 132 415
e 133 930
e 133 517
e 133 266
e 133 452
e 133 504
e 133 861
e 133 889
e 134 707
e 134 218
e 134 649
e 134 613
e 136 556
e 136 484
e 136 409
e 136 606
e 140 653
e 140 718
e 141 406
e 141 804
e 141 830
e 141 645
e 141 364
e 144 405
e 144 614
e 144 900
e 144 650
e 144 905
e 144 452
e 145 900
e 145 701
e 146 535
e 146 365
e 146 318
e 146 232
e 146 847
e 146 981
e 148 690
e 148 850
e 148 532
e 148 915
e 148 406
e 149 938
e 149 559
e 149 989
e 149 342
e 149 855
e 150 972
e 150 839
e 150 273
e 151 454
e 151 559
e 151 761
e 151 652
e 151 513
e 152 563
e 152 736
e 154 849
e 154 918
e 156 853
e 156 494
e 156 683
e 157 946
e 157 547
e 157 794
e 157 680
e 158 453
e 158 923
e 158 570
e 158 625
e 161 710
e 161 202
e 161 538
e 161 458
e 161 720
e 161 222
e 162 802
e 162 794
e 164 482
e 164 839
e 164 247
e 164 900
e 164 237
e 164 787
e 166 465
e 166 329
e 166 746
e 168 365
e 168 763
e 168 726
e 168 395
e 168 380
e 168 984
e 169 187
e 169 292
e 169 294
e 170 660
e 170 581
e 170 441
e 170 928
e 171 739
e 171 253
e 171 595
e 171 437
e 173 854
e 173 503
e 173 190
e 173 721
e 173 238
e 173 912
e 175 298
e 175 926
e 175 297
e 175 291
e 175 412
e 177 692
e 177 499
e 177 952
e 177 774
e 177 916
e 177 917
e 178 433
e 178 847
e 178 589
e 178 689
e 179 392
e 179 636
e 179 771
e 179 827
e 180 415
e 180 759
e 180 354
e 180 432
e 180 537
e 181 492
e 181 692
e 181 195
e 181 550
e 181 247
e 181 850
e 182 940
e 182 236
e 182 824
e 182 633
e 182 667
e 182 376
e 182 863
e 183 439
e 183 423
e 183 483
e 183 204
e 184 603
e 184 887
e 184 884
e 187 590
e 187 997
e 190 785
e 190 529
e 195 449
e 195 317
e 195 295
e 197 547
e 197 388
e 197 701
e 198 844
e 198 933
e 198 236
e 200 592
e 200 367
e 200 403
e 200 666
e 201 280
e 201 227
e 202 430
e 202 611
e 202 277
e 203 929
e 203 657
e 203 594
e 203 927
e 203 582
e 204 604
e 204 499
e 204 841
e 204 587
e 206 519
e 206 347
e 206 255
e 206 576
e 207 270
e 207 387
e 207 818
e 207 579
e 208 822
e 208 972
e 208 722
e 208 956
e 208 770
e 208 750
e 208 397
e 208 699
e 210 354
e 210 770
e 210 539
e 210 900
e 210 897
e 210 821
e 212 693
e 212 465
e 212 248
e 212 719
e 213 524
e 213 443
e 213 467
e 213 221
e 213 834
e 216 584
e 216 814
e 216 907
e 216 271
e 216 558
e 217 858
e 217 940
e 217 793
e 217 296
e 217 273
e 217 879
e 218 952
e 218 679
e 220 740
e 220 723
e 220 480
e 220 963
e 220 911
e 220 491
e 221 895
e 221 956
e 221 866
e 221 972
e 221 498
e 222 977
e 223 453
e 223 289
e 223 369
e 223 310
e 223 972
e 223 745
e 223 694
e 225 854
e 225 746
e 225 582
e 225 991
e 225 381
e 227 566
e 227 662
e 228 887
e 228 334
e 228 230
e 229 461
e 229 664
e 229 237
e 229 643
e 229 329
e 230 887
e 230 712
e 230 704
e 230 513
e 231 467
e 231 519
e 232 756
e 232 271
e 234 386
e 234 318
e 234 747
e 235 821
e 235 314
e 235 624
e 235 319
e 235 796
e 235 388
e 235 396
e 236 279
e 236 641
e 236 852
e 236 875
e 237 544
e 238 962
e 238 654
e 239 744
e 239 263
e 239 614
e 242 449
e 242 973
e 242 841
e 242 564
e 242 351
e 244 880
e 244 975
e 244 622
e 244 640
e 244 920
e 244 634
e 244 628
e 244 501
e 247 906
e 247 553
e 248 491
e 248 710
e 248 963
e 249 972
e 249 548
e 249 428
e 249 405
e 251 271
e 251 643
e 251 571
e 251 261
e 252 603
e 252 963
e 252 506
e 252 576
e 253 641
e 253 392
e 253 765
e 253 622
e 253 876
e 254 452
e 254 504
e 254 731
e 254 262
e 255 803
e 255 511
e 255 861
e 256 645
e 256 900
e 256 317
e 256 307
e 256 657
e 258 299
e 258 962
e 258 547
e 261 462
e 261 721
e 262 948
e 262 711
e 263 830
e 263 472
e 263 918
e 265 796
e 265 572
e 265 894
e 266 322
e 266 880
e 266 777
e 266 600
e 268 347
e 268 323
e 270 858
e 270 968
e 270 392
e 270 796
e 271 476
e 271 985
e 271 886
e 271 357
e 272 479
e 272 954
e 272 574
e 272 847
e 272 736
e 273 596
e 273 784
e 274 796
e 274 568
e 274 813
e 275 633
e 275 589
e 277 381
e 277 795
e 277 738
e 277 554
e 278 295
e 278 859
e 278 775
e 279 935
e 279 911
e 280 949
e 280 814
e 280 796
e 280 627
e 280 739
e 280 502
e 280 976
e 280 879
e 281 897
e 281 527
e 281 549
e 281 891
e 281 994
e 281 285
e 282 809
e 282 983
e 282 738
e 284 953
e 284 496
e 284 767
e 285 612
e 285 735
e 285 660
e 286 708
e 286 433
e 286 324
e 286 503
e 289 326
e 289 722
e 289 842
e 289 724
e 290 651
e 290 628
e 290 424
e 290 885
e 291 457
e 291 629
e 292 338
e 292 943
e 292 655
e 292 755
e 293 640
e 293 975
e 293 925
e 294 366
e 294 597
e 294 863
e 294 353
e 294 758
e 295 513
e 295 895
e 295 799
e 295 978
e 296 619
e 296 799
e 296 515
e 297 369
e 297 647
e 297 996
e 298 590
e 298 584
e 298 463
e 298 439
e 299 693
e 299 690
e 299 984
e 302 358
e 302 387
e 302 537
e 302 687
e 302 704
e 306 661
e 306 429
e 306 888
e 307 842
e 307 852
e 307 625
e 307 971
e 307 647
e 308 659
e 308 777
e 308 454
e 308 528
e 308 675
e 309 593
e 309 754
e 310 899
e 310 524
e 310 628
e 310 746
e 314 354
e 314 466
e 316 511
e 316 628
e 316 852
e 316 421
e 316 532
e 317 676
e 317 341
e 317 872
e 318 708
e 318 748
e 318 520
e 318 884
e 319 795
e 319 498
e 319 720
e 320 429
e 321 918
e 321 673
e 321 979
e 321 399
e 321 929
e 321 832
e 322 653
e 322 771
e 323 401
e 323 762
e 323 637
e 324 481
e 324 979
e 324 442
e 325 879
e 325 538
e 326 841
e 326 936
e 326 378
e 326 972
e 328 671
e 328 388
e 329 625
e 329 711
e 329 688
e 329 603
e 330 809
e 330 588
e 331 613
e 331 715
e 331 756
e 331 773
e 331 769
e 333 647
e 333 504
e 333 334
e 334 701
e 334 712
e 334 996
e 335 717
e 335 946
e 335 922
e 336 898
e 336 841
e 336 826
e 338 712
e 339 977
e 339 946
e 339 365
e 340 662
e 340 758
e 340 671
e 340 385
e 340 353
e 341 873
e 341 986
e 341 629
e 341 687
e 342 829
e 342 704
e 342 678
e 342 541
e 343 351
e 343 614
e 344 624
e 344 410
e 344 463
e 345 619
e 345 731
e 345 973
e 347 893
e 347 564
e 347 548
e 347 424
e 347 422
e 350 507
e 350 544
e 351 577
e 351 957
e 351 839
e 351 778
e 351 995
e 352 655
e 352 897
e 352 886
e 353 453
e 353 373
e 354 428
e 354 912
e 354 392
e 354 548
e 355 422
e 355 747
e 355 743
e 355 519
e 355 668
e 355 864
e 356 966
e 357 460
e 357 367
e 358 562
e 358 795
e 360 997
e 360 700
e 360 754
e 361 853
e 361 802
e 361 653
e 361 671
e 363 443
e 363 587
e 363 666
e 363 879
e 364 637
e 364 845
e 365 622
e 365 412
e 365 687
e 365 708
e 366 477
e 366 458
e 367 679
e 367 501
e 367 671
e 368 723
e 368 413
e 368 445
e 369 854
e 369 835
e 372 577
e 372 388
e 373 704
e 373 698
e 374 807
e 374 618
e 374 915
e 375 589
e 375 479
e 375 838
e 376 840
e 376 474
e 376 592
e 377 888
e 377 476
e 377 484
e 378 826
e 378 719
e 378 805
e 378 877
e 378 742
e 380 639
e 381 782
e 381 485
e 381 918
e 381 794
e 382 994
e 382 385
e 382 832
e 382 686
e 385 950
e 385 779
e 385 765
e 385 955
e 385 504
e 385 877
e 385 756
e 386 479
e 386 689
e 386 786
e 387 959
e 387 894
e 388 730
e 388 441
e 388 679
e 390 907
e 390 920
e 390 460
e 390 771
e 393 864
e 393 952
e 393 744
e 394 873
e 394 646
e 394 888
e 394 939
e 395 743
e 395 763
e 395 780
e 396 948
e 396 897
e 396 726
e 396 504
e 396 590
e 396 713
e 397 423
e 397 414
e 399 778
e 399 474
e 399 869
e 399 707
e 399 933
e 401 888
e 401 779
e 401 664
e 401 524
e 401 807
e 401 476
e 401 730
e 403 652
e 403 646
e 404 557
e 404 547
e 405 656
e 405 655
e 405 832
e 405 572
e 406 843
e 406 433
e 406 653
e 406 413
e 406 726
e 409 559
e 410 833
e 410 927
e 410 554
e 412 926
e 412 534
e 413 932
e 414 687
e 414 538
e 414 956
e 414 946
e 415 941
e 415 564
e 416 943
e 416 714
e 416 447
e 416 974
e 416 906
e 416 872
e 416 815
e 416 504
e 416 885
e 417 963
e 417 745
e 417 453
e 417 437
e 418 612
e 418 494
e 418 782
e 418 614
e 421 843
e 421 740
e 421 564
e 422 480
e 422 922
e 422 873
e 423 461
e 423 562
e 423 941
e 424 845
e 424 501
e 424 809
e 424 593
e 428 647
e 428 841
e 428 462
e 429 968
e 429 841
e 429 916
e 429 618
e 429 872
e 430 629
e 430 512
e 430 933
e 431 699
e 431 962
e 431 439
e 431 492
e 431 968
e 432 791
e 432 837
e 433 512
e 433 944
e 434 672
e 435 922
e 435 886
e 436 481
e 436 619
e 436 948
e 437 476
e 437 617
e 437 529
e 437 438
e 438 995
e 438 452
e 439 978
e 439 970
e 439 467
e 441 830
e 441 613
e 442 561
e 442 808
e 442 496
e 442 511
e 442 461
e 443 954
e 443 454
e 443 680
e 444 487
e 444 729
e 444 467
e 444 975
e 444 476
e 444 621
e 444 857
e 444 501
e 444 451
e 445 974
e 445 886
e 445 899
e 446 751
e 446 499
e 446 941
e 447 542
e 447 853
e 447 611
e 447 677
e 448 504
e 448 639
e 448 867
e 451 895
e 452 661
e 452 664
e 452 775
e 454 595
e 457 966
e 457 912
e 458 957
e 458 612
e 460 690
e 460 848
e 460 639
e 461 813
e 461 819
e 461 777
e 461 628
e 462 803
e 462 628
e 462 527
e 462 763
e 462 512
e 462 725
e 463 949
e 463 500
e 463 676
e 465 985
e 465 966
e 465 843
e 466 982
e 466 504
e 467 623
e 467 595
e 467 891
e 469 660
e 469 649
e 471 808
e 472 576
e 472 835
e 474 495
e 474 875
e 475 942
e 475 789
e 475 609
e 477 715
e 477 670
e 477 624
e 477 651
e 478 573
e 478 995
e 478 691
e 479 980
e 479 930
e 479 733
e 479 767
e 480 576
e 481 543
e 481 990
e 482 772
e 482 706
e 483 948
e 484 625
e 485 773
e 485 663
e 485 517
e 486 529
e 486 528
e 486 735
e 486 683
e 486 503
e 486 854
e 487 838
e 487 652
e 487 538
e 487 770
e 488 774
e 488 556
e 491 799
e 491 656
e 491 588
e 492 639
e 492 746
e 492 883
e 492 719
e 494 926
e 494 785
e 496 787
e 498 589
e 499 511
e 499 796
e 499 725
e 500 970
e 500 948
e 501 581
e 501 847
e 501 688
e 501 558
e 501 646
e 502 584
e 502 969
e 504 834
e 504 993
e 504 983
e 506 570
e 506 813
e 506 768
e 507 723
e 507 735
e 509 953
e 509 778
e 509 850
e 511 736
e 511 925
e 511 915
e 511 786
e 511 972
e 511 889
e 512 862
e 512 698
e 512 981
e 512 513
e 513 884
e 513 809
e 514 535
e 514 927
e 514 603
e 514 566
e 515 616
e 515 834
e 517 858
e 517 822
e 517 663
e 519 595
e 520 767
e 520 672
e 521 562
e 521 679
e 524 749
e 524 748
e 524 845
e 524 691
e 527 821
e 527 949
e 527 829
e 528 713
e 528 687
e 528 872
e 529 628
e 530 594
e 530 562
e 530 833
e 531 834
e 531 897
e 531 621
e 534 751
e 534 723
e 535 671
e 535 536
e 535 571
e 535 802
e 535 879
e 536 546
e 536 990
e 537 885
e 537 978
e 537 630
e 538 592
e 538 832
e 539 594
e 539 622
e 539 769
e 540 617
e 540 998
e 540 983
e 541 738
e 541 876
e 541 600
e 542 961
e 542 869
e 543 657
e 543 606
e 544 943
e 546 961
e 546 708
e 546 579
e 547 829
e 547 902
e 548 969
e 548 627
e 548 736
e 549 902
e 549 984
e 550 785
e 550 906
e 552 593
e 552 967
e 552 564
e 552 805
e 553 740
e 553 772
e 553 998
e 553 554
e 553 834
e 554 561
e 555 763
e 555 702
e 555 733
e 555 740
e 556 814
e 556 833
e 557 906
e 557 660
e 558 976
e 558 778
e 559 786
e 559 905
e 559 952
e 559 974
e 560 888
e 560 919
e 560 561
e 560 617
e 560 847
e 561 790
e 561 777
e 562 736
e 563 941
e 563 577
e 564 969
e 564 829
e 564 607
e 566 815
e 566 584
e 568 948
e 568 771
e 568 825
e 568 610
e 570 754
e 570 642
e 571 768
e 572 730
e 572 722
e 573 762
e 573 633
e 574 605
e 574 877
e 574 826
e 575 747
e 575 675
e 575 581
e 576 742
e 576 717
e 577 723
e 577 840
e 577 774
e 579 978
e 579 769
e 580 991
e 580 659
e 580 808
e 582 634
e 582 939
e 584 892
e 584 819
e 587 719
e 587 981
e 587 746
e 587 894
e 588 829
e 589 702
e 592 928
e 592 612
e 594 986
e 595 863
e 595 610
e 596 932
e 596 944
e 597 708
e 597 715
e 600 971
e 600 892
e 601 789
e 601 639
e 603 606
e 603 883
e 603 933
e 604 896
e 604 975
e 604 646
e 605 976
e 607 915
e 607 856
e 609 786
e 609 843
e 610 930
e 611 644
e 611 671
e 611 851
e 612 839
e 613 949
e 613 711
e 614 715
e 614 616
e 614 926
e 614 700
e 614 976
e 616 962
e 617 877
e 618 941
e 618 650
e 619 875
e 622 717
e 623 991
e 624 749
e 625 815
e 625 980
e 627 908
e 627 658
e 627 990
e 627 736
e 628 656
e 628 728
e 628 636
e 628 912
e 628 668
e 629 773
e 629 959
e 630 717
e 630 642
e 630 848
e 630 700
e 633 751
e 633 840
e 634 853
e 634 832
e 636 986
e 636 680
e 637 656
e 639 743
e 639 757
e 640 830
e 640 981
e 641 977
e 641 919
e 642 778
e 643 954
e 643 971
e 644 670
e 644 699
e 645 934
e 646 677
e 647 700
e 647 936
e 649 708
e 650 957
e 650 833
e 650 925
e 651 969
e 651 924
e 651 976
e 652 875
e 653 991
e 654 996
e 654 951
e 654 942
e 655 854
e 657 922
e 657 791
e 658 892
e 658 994
e 658 749
e 659 996
e 659 661
e 661 973
e 661 863
e 662 744
e 663 870
e 664 851
e 667 824
e 667 671
e 668 955
e 668 976
e 668 686
e 670 759
e 672 779
e 672 951
e 672 711
e 673 849
e 673 747
e 673 922
e 675 885
e 676 951
e 677 772
e 677 856
e 678 780
e 678 815
e 679 934
e 679 922
e 680 803
e 683 844
e 683 976
e 683 695
e 683 803
e 683 948
e 684 954
e 684 729
e 686 961
e 687 839
e 688 876
e 688 728
e 689 755
e 689 701
e 691 731
e 692 897
e 694 896
e 695 986
e 695 880
e 699 862
e 701 948
e 702 891
e 704 729
e 706 959
e 706 886
e 707 824
e 708 892
e 710 916
e 710 899
e 711 759
e 711 858
e 711 799
e 712 837
e 712 866
e 712 883
e 713 955
e 713 967
e 714 918
e 714 733
e 715 841
e 715 851
e 717 908
e 718 876
e 718 998
e 719 829
e 720 944
e 721 770
e 721 905
e 721 844
e 722 991
e 722 733
e 725 833
e 725 871
e 726 873
e 728 851
e 729 907
e 729 739
e 731 780
e 735 982
e 739 771
e 739 755
e 739 954
e 744 827
e 744 967
e 744 862
e 744 843
e 744 767
e 744 962
e 746 979
e 746 875
e 746 767
e 747 870
e 747 923
e 748 864
e 748 893
e 750 815
e 750 825
e 754 996
e 757 830
e 757 768
e 757 784
e 758 832
e 758 767
e 761 765
e 761 791
e 762 953
e 762 925
e 762 955
e 762 840
e 762 809
e 765 957
e 770 809
e 770 917
e 771 905
e 772 803
e 773 790
e 774 923
e 774 775
e 775 949
e 777 843
e 777 870
e 780 970
e 784 955
e 784 982
e 785 975
e 787 940
e 789 985
e 790 949
e 791 948
e 793 978
e 794 951
e 794 938
e 795 982
e 802 919
e 802 980
e 802 804
e 803 998
e 803 850
e 805 872
e 807 879
e 808 821
e 809 876
e 815 996
e 819 875
e 822 825
e 824 928
e 824 989
e 825 924
e 825 929
e 830 950
e 830 906
e 831 968
e 831 944
e 832 847
e 833 885
e 834 866
e 837 944
e 838 967
e 842 951
e 849 943
e 850 955
e 850 970
e 851 951
e 855 994
e 855 939
e 856 923
e 856 995
e 857 997
e 859 866
e 859 933
e 859 863
e 861 906
e 861 920
e 862 993
e 862 867
e 862 887
e 867 969
e 869 927
e 870 994
e 871 889
e 873 932
e 877 989
e 880 990
e 880 908
e 880 983
e 885 948
e 885 986
e 887 898
e 893 980
e 893 946
e 894 938
e 897 950
e 897 928
e 900 976
e 902 956
e 905 917
e 911 975
e 915 951
e 915 932
e 918 920
e 932 966
e 941 971
e 944 972
e 946 967
e 946 993
e 950 991
e 952 962
e 957 985
e 963 982
e 967 994
e 967 969
e 976 980
e 984 998
